(set-option :produce-models True)
(set-logic QF_LIA)
(declare-fun use_server6 () Int)
(declare-fun srv0_vm0 () Int)
(declare-fun n_servers () Int)
(declare-fun use_server7 () Int)
(declare-fun srv0_vm1 () Int)
(declare-fun use_server8 () Int)
(declare-fun srv0_vm2 () Int)
(declare-fun use_server9 () Int)
(declare-fun srv0_vm3 () Int)
(declare-fun use_server10 () Int)
(declare-fun srv0_vm4 () Int)
(declare-fun srv0_vm5 () Int)
(declare-fun srv0_vm6 () Int)
(declare-fun srv0_vm7 () Int)
(declare-fun srv0_vm8 () Int)
(declare-fun srv0_vm9 () Int)
(declare-fun srv0_vm10 () Int)
(declare-fun srv1_vm0 () Int)
(declare-fun srv1_vm1 () Int)
(declare-fun srv1_vm2 () Int)
(declare-fun srv1_vm3 () Int)
(declare-fun srv1_vm4 () Int)
(declare-fun srv1_vm5 () Int)
(declare-fun srv1_vm6 () Int)
(declare-fun srv1_vm7 () Int)
(declare-fun srv1_vm8 () Int)
(declare-fun srv1_vm9 () Int)
(declare-fun srv1_vm10 () Int)
(declare-fun srv2_vm0 () Int)
(declare-fun srv2_vm1 () Int)
(declare-fun srv2_vm2 () Int)
(declare-fun srv2_vm3 () Int)
(declare-fun srv2_vm4 () Int)
(declare-fun srv2_vm5 () Int)
(declare-fun srv2_vm6 () Int)
(declare-fun srv2_vm7 () Int)
(declare-fun srv2_vm8 () Int)
(declare-fun srv2_vm9 () Int)
(declare-fun srv2_vm10 () Int)
(declare-fun srv3_vm0 () Int)
(declare-fun srv3_vm1 () Int)
(declare-fun srv3_vm2 () Int)
(declare-fun srv3_vm3 () Int)
(declare-fun srv3_vm4 () Int)
(declare-fun srv3_vm5 () Int)
(declare-fun srv3_vm6 () Int)
(declare-fun srv3_vm7 () Int)
(declare-fun srv3_vm8 () Int)
(declare-fun srv3_vm9 () Int)
(declare-fun srv3_vm10 () Int)
(declare-fun srv4_vm0 () Int)
(declare-fun srv4_vm1 () Int)
(declare-fun srv4_vm2 () Int)
(declare-fun srv4_vm3 () Int)
(declare-fun srv4_vm4 () Int)
(declare-fun srv4_vm5 () Int)
(declare-fun srv4_vm6 () Int)
(declare-fun srv4_vm7 () Int)
(declare-fun srv4_vm8 () Int)
(declare-fun srv4_vm9 () Int)
(declare-fun srv4_vm10 () Int)
(declare-fun srv5_vm0 () Int)
(declare-fun srv5_vm1 () Int)
(declare-fun srv5_vm2 () Int)
(declare-fun srv5_vm3 () Int)
(declare-fun srv5_vm4 () Int)
(declare-fun srv5_vm5 () Int)
(declare-fun srv5_vm6 () Int)
(declare-fun srv5_vm7 () Int)
(declare-fun srv5_vm8 () Int)
(declare-fun srv5_vm9 () Int)
(declare-fun srv5_vm10 () Int)
(declare-fun srv6_vm0 () Int)
(declare-fun srv6_vm1 () Int)
(declare-fun srv6_vm2 () Int)
(declare-fun srv6_vm3 () Int)
(declare-fun srv6_vm4 () Int)
(declare-fun srv6_vm5 () Int)
(declare-fun srv6_vm6 () Int)
(declare-fun srv6_vm7 () Int)
(declare-fun srv6_vm8 () Int)
(declare-fun srv6_vm9 () Int)
(declare-fun srv6_vm10 () Int)
(declare-fun srv7_vm0 () Int)
(declare-fun srv7_vm1 () Int)
(declare-fun srv7_vm2 () Int)
(declare-fun srv7_vm3 () Int)
(declare-fun srv7_vm4 () Int)
(declare-fun srv7_vm5 () Int)
(declare-fun srv7_vm6 () Int)
(declare-fun srv7_vm7 () Int)
(declare-fun srv7_vm8 () Int)
(declare-fun srv7_vm9 () Int)
(declare-fun srv7_vm10 () Int)
(declare-fun srv8_vm0 () Int)
(declare-fun srv8_vm1 () Int)
(declare-fun srv8_vm2 () Int)
(declare-fun srv8_vm3 () Int)
(declare-fun srv8_vm4 () Int)
(declare-fun srv8_vm5 () Int)
(declare-fun srv8_vm6 () Int)
(declare-fun srv8_vm7 () Int)
(declare-fun srv8_vm8 () Int)
(declare-fun srv8_vm9 () Int)
(declare-fun srv8_vm10 () Int)
(declare-fun srv9_vm0 () Int)
(declare-fun srv9_vm1 () Int)
(declare-fun srv9_vm2 () Int)
(declare-fun srv9_vm3 () Int)
(declare-fun srv9_vm4 () Int)
(declare-fun srv9_vm5 () Int)
(declare-fun srv9_vm6 () Int)
(declare-fun srv9_vm7 () Int)
(declare-fun srv9_vm8 () Int)
(declare-fun srv9_vm9 () Int)
(declare-fun srv9_vm10 () Int)
(declare-fun srv10_vm0 () Int)
(declare-fun srv10_vm1 () Int)
(declare-fun srv10_vm2 () Int)
(declare-fun srv10_vm3 () Int)
(declare-fun srv10_vm4 () Int)
(declare-fun srv10_vm5 () Int)
(declare-fun srv10_vm6 () Int)
(declare-fun srv10_vm7 () Int)
(declare-fun srv10_vm8 () Int)
(declare-fun srv10_vm9 () Int)
(declare-fun srv10_vm10 () Int)
(declare-fun use_server0 () Int)
(declare-fun use_server1 () Int)
(declare-fun use_server2 () Int)
(declare-fun use_server3 () Int)
(declare-fun use_server4 () Int)
(declare-fun use_server5 () Int)
(assert (let ((.def_0 (+ use_server0 use_server1 use_server2 use_server3 use_server4 use_server5 use_server6 use_server7 use_server8 use_server9 use_server10))) (let ((.def_1 (= n_servers .def_0))) (let ((.def_2 (= use_server10 0))) (let ((.def_3 (+ srv10_vm0 srv10_vm1 srv10_vm2 srv10_vm3 srv10_vm4 srv10_vm5 srv10_vm6 srv10_vm7 srv10_vm8 srv10_vm9 srv10_vm10))) (let ((.def_4 (= .def_3 0))) (let ((.def_5 (=> .def_4 .def_2))) (let ((.def_6 (= use_server10 1))) (let ((.def_7 (<= 1 .def_3))) (let ((.def_8 (=> .def_7 .def_6))) (let ((.def_9 (= use_server9 0))) (let ((.def_10 (+ srv9_vm0 srv9_vm1 srv9_vm2 srv9_vm3 srv9_vm4 srv9_vm5 srv9_vm6 srv9_vm7 srv9_vm8 srv9_vm9 srv9_vm10))) (let ((.def_11 (= .def_10 0))) (let ((.def_12 (=> .def_11 .def_9))) (let ((.def_13 (= use_server9 1))) (let ((.def_14 (<= 1 .def_10))) (let ((.def_15 (=> .def_14 .def_13))) (let ((.def_16 (= use_server8 0))) (let ((.def_17 (+ srv8_vm0 srv8_vm1 srv8_vm2 srv8_vm3 srv8_vm4 srv8_vm5 srv8_vm6 srv8_vm7 srv8_vm8 srv8_vm9 srv8_vm10))) (let ((.def_18 (= .def_17 0))) (let ((.def_19 (=> .def_18 .def_16))) (let ((.def_20 (= use_server8 1))) (let ((.def_21 (<= 1 .def_17))) (let ((.def_22 (=> .def_21 .def_20))) (let ((.def_23 (= use_server7 0))) (let ((.def_24 (+ srv7_vm0 srv7_vm1 srv7_vm2 srv7_vm3 srv7_vm4 srv7_vm5 srv7_vm6 srv7_vm7 srv7_vm8 srv7_vm9 srv7_vm10))) (let ((.def_25 (= .def_24 0))) (let ((.def_26 (=> .def_25 .def_23))) (let ((.def_27 (= use_server7 1))) (let ((.def_28 (<= 1 .def_24))) (let ((.def_29 (=> .def_28 .def_27))) (let ((.def_30 (= use_server6 0))) (let ((.def_31 (+ srv6_vm0 srv6_vm1 srv6_vm2 srv6_vm3 srv6_vm4 srv6_vm5 srv6_vm6 srv6_vm7 srv6_vm8 srv6_vm9 srv6_vm10))) (let ((.def_32 (= .def_31 0))) (let ((.def_33 (=> .def_32 .def_30))) (let ((.def_34 (= use_server6 1))) (let ((.def_35 (<= 1 .def_31))) (let ((.def_36 (=> .def_35 .def_34))) (let ((.def_37 (= use_server5 0))) (let ((.def_38 (+ srv5_vm0 srv5_vm1 srv5_vm2 srv5_vm3 srv5_vm4 srv5_vm5 srv5_vm6 srv5_vm7 srv5_vm8 srv5_vm9 srv5_vm10))) (let ((.def_39 (= .def_38 0))) (let ((.def_40 (=> .def_39 .def_37))) (let ((.def_41 (= use_server5 1))) (let ((.def_42 (<= 1 .def_38))) (let ((.def_43 (=> .def_42 .def_41))) (let ((.def_44 (= use_server4 0))) (let ((.def_45 (+ srv4_vm0 srv4_vm1 srv4_vm2 srv4_vm3 srv4_vm4 srv4_vm5 srv4_vm6 srv4_vm7 srv4_vm8 srv4_vm9 srv4_vm10))) (let ((.def_46 (= .def_45 0))) (let ((.def_47 (=> .def_46 .def_44))) (let ((.def_48 (= use_server4 1))) (let ((.def_49 (<= 1 .def_45))) (let ((.def_50 (=> .def_49 .def_48))) (let ((.def_51 (= use_server3 0))) (let ((.def_52 (+ srv3_vm0 srv3_vm1 srv3_vm2 srv3_vm3 srv3_vm4 srv3_vm5 srv3_vm6 srv3_vm7 srv3_vm8 srv3_vm9 srv3_vm10))) (let ((.def_53 (= .def_52 0))) (let ((.def_54 (=> .def_53 .def_51))) (let ((.def_55 (= use_server3 1))) (let ((.def_56 (<= 1 .def_52))) (let ((.def_57 (=> .def_56 .def_55))) (let ((.def_58 (= use_server2 0))) (let ((.def_59 (+ srv2_vm0 srv2_vm1 srv2_vm2 srv2_vm3 srv2_vm4 srv2_vm5 srv2_vm6 srv2_vm7 srv2_vm8 srv2_vm9 srv2_vm10))) (let ((.def_60 (= .def_59 0))) (let ((.def_61 (=> .def_60 .def_58))) (let ((.def_62 (= use_server2 1))) (let ((.def_63 (<= 1 .def_59))) (let ((.def_64 (=> .def_63 .def_62))) (let ((.def_65 (= use_server1 0))) (let ((.def_66 (+ srv1_vm0 srv1_vm1 srv1_vm2 srv1_vm3 srv1_vm4 srv1_vm5 srv1_vm6 srv1_vm7 srv1_vm8 srv1_vm9 srv1_vm10))) (let ((.def_67 (= .def_66 0))) (let ((.def_68 (=> .def_67 .def_65))) (let ((.def_69 (= use_server1 1))) (let ((.def_70 (<= 1 .def_66))) (let ((.def_71 (=> .def_70 .def_69))) (let ((.def_72 (= use_server0 0))) (let ((.def_73 (+ srv0_vm0 srv0_vm1 srv0_vm2 srv0_vm3 srv0_vm4 srv0_vm5 srv0_vm6 srv0_vm7 srv0_vm8 srv0_vm9 srv0_vm10))) (let ((.def_74 (= .def_73 0))) (let ((.def_75 (=> .def_74 .def_72))) (let ((.def_76 (= use_server0 1))) (let ((.def_77 (<= 1 .def_73))) (let ((.def_78 (=> .def_77 .def_76))) (let ((.def_79 (* srv10_vm10 1300))) (let ((.def_80 (* srv10_vm9 3700))) (let ((.def_81 (* srv10_vm8 450))) (let ((.def_82 (* srv10_vm7 2500))) (let ((.def_83 (* srv10_vm6 800))) (let ((.def_84 (* srv10_vm5 4000))) (let ((.def_85 (* srv10_vm4 7000))) (let ((.def_86 (* srv10_vm3 800))) (let ((.def_87 (* srv10_vm2 710))) (let ((.def_88 (* srv10_vm1 900))) (let ((.def_89 (* srv10_vm0 100))) (let ((.def_90 (+ .def_89 .def_88 .def_87 .def_86 .def_85 .def_84 .def_83 .def_82 .def_81 .def_80 .def_79))) (let ((.def_91 (<= .def_90 1000))) (let ((.def_92 (* srv10_vm10 12))) (let ((.def_93 (* srv10_vm9 16))) (let ((.def_94 (* srv10_vm8 16))) (let ((.def_95 (* srv10_vm7 4))) (let ((.def_96 (* srv10_vm6 2))) (let ((.def_97 (* srv10_vm5 8))) (let ((.def_98 (* srv10_vm4 4))) (let ((.def_99 (* srv10_vm3 2))) (let ((.def_100 (* srv10_vm2 4))) (let ((.def_101 (* srv10_vm1 16))) (let ((.def_102 (* srv10_vm0 1))) (let ((.def_103 (+ .def_102 .def_101 .def_100 .def_99 .def_98 .def_97 .def_96 .def_95 .def_94 .def_93 .def_92))) (let ((.def_104 (<= .def_103 8))) (let ((.def_105 (* srv9_vm10 1300))) (let ((.def_106 (* srv9_vm9 3700))) (let ((.def_107 (* srv9_vm8 450))) (let ((.def_108 (* srv9_vm7 2500))) (let ((.def_109 (* srv9_vm6 800))) (let ((.def_110 (* srv9_vm5 4000))) (let ((.def_111 (* srv9_vm4 7000))) (let ((.def_112 (* srv9_vm3 800))) (let ((.def_113 (* srv9_vm2 710))) (let ((.def_114 (* srv9_vm1 900))) (let ((.def_115 (* srv9_vm0 100))) (let ((.def_116 (+ .def_115 .def_114 .def_113 .def_112 .def_111 .def_110 .def_109 .def_108 .def_107 .def_106 .def_105))) (let ((.def_117 (<= .def_116 10000))) (let ((.def_118 (* srv9_vm10 12))) (let ((.def_119 (* srv9_vm9 16))) (let ((.def_120 (* srv9_vm8 16))) (let ((.def_121 (* srv9_vm7 4))) (let ((.def_122 (* srv9_vm6 2))) (let ((.def_123 (* srv9_vm5 8))) (let ((.def_124 (* srv9_vm4 4))) (let ((.def_125 (* srv9_vm3 2))) (let ((.def_126 (* srv9_vm2 4))) (let ((.def_127 (* srv9_vm1 16))) (let ((.def_128 (* srv9_vm0 1))) (let ((.def_129 (+ .def_128 .def_127 .def_126 .def_125 .def_124 .def_123 .def_122 .def_121 .def_120 .def_119 .def_118))) (let ((.def_130 (<= .def_129 16))) (let ((.def_131 (* srv8_vm10 1300))) (let ((.def_132 (* srv8_vm9 3700))) (let ((.def_133 (* srv8_vm8 450))) (let ((.def_134 (* srv8_vm7 2500))) (let ((.def_135 (* srv8_vm6 800))) (let ((.def_136 (* srv8_vm5 4000))) (let ((.def_137 (* srv8_vm4 7000))) (let ((.def_138 (* srv8_vm3 800))) (let ((.def_139 (* srv8_vm2 710))) (let ((.def_140 (* srv8_vm1 900))) (let ((.def_141 (* srv8_vm0 100))) (let ((.def_142 (+ .def_141 .def_140 .def_139 .def_138 .def_137 .def_136 .def_135 .def_134 .def_133 .def_132 .def_131))) (let ((.def_143 (<= .def_142 1000))) (let ((.def_144 (* srv8_vm10 12))) (let ((.def_145 (* srv8_vm9 16))) (let ((.def_146 (* srv8_vm8 16))) (let ((.def_147 (* srv8_vm7 4))) (let ((.def_148 (* srv8_vm6 2))) (let ((.def_149 (* srv8_vm5 8))) (let ((.def_150 (* srv8_vm4 4))) (let ((.def_151 (* srv8_vm3 2))) (let ((.def_152 (* srv8_vm2 4))) (let ((.def_153 (* srv8_vm1 16))) (let ((.def_154 (* srv8_vm0 1))) (let ((.def_155 (+ .def_154 .def_153 .def_152 .def_151 .def_150 .def_149 .def_148 .def_147 .def_146 .def_145 .def_144))) (let ((.def_156 (<= .def_155 8))) (let ((.def_157 (* srv7_vm10 1300))) (let ((.def_158 (* srv7_vm9 3700))) (let ((.def_159 (* srv7_vm8 450))) (let ((.def_160 (* srv7_vm7 2500))) (let ((.def_161 (* srv7_vm6 800))) (let ((.def_162 (* srv7_vm5 4000))) (let ((.def_163 (* srv7_vm4 7000))) (let ((.def_164 (* srv7_vm3 800))) (let ((.def_165 (* srv7_vm2 710))) (let ((.def_166 (* srv7_vm1 900))) (let ((.def_167 (* srv7_vm0 100))) (let ((.def_168 (+ .def_167 .def_166 .def_165 .def_164 .def_163 .def_162 .def_161 .def_160 .def_159 .def_158 .def_157))) (let ((.def_169 (<= .def_168 2000))) (let ((.def_170 (* srv7_vm10 12))) (let ((.def_171 (* srv7_vm9 16))) (let ((.def_172 (* srv7_vm8 16))) (let ((.def_173 (* srv7_vm7 4))) (let ((.def_174 (* srv7_vm6 2))) (let ((.def_175 (* srv7_vm5 8))) (let ((.def_176 (* srv7_vm4 4))) (let ((.def_177 (* srv7_vm3 2))) (let ((.def_178 (* srv7_vm2 4))) (let ((.def_179 (* srv7_vm1 16))) (let ((.def_180 (* srv7_vm0 1))) (let ((.def_181 (+ .def_180 .def_179 .def_178 .def_177 .def_176 .def_175 .def_174 .def_173 .def_172 .def_171 .def_170))) (let ((.def_182 (<= .def_181 32))) (let ((.def_183 (* srv6_vm10 1300))) (let ((.def_184 (* srv6_vm9 3700))) (let ((.def_185 (* srv6_vm8 450))) (let ((.def_186 (* srv6_vm7 2500))) (let ((.def_187 (* srv6_vm6 800))) (let ((.def_188 (* srv6_vm5 4000))) (let ((.def_189 (* srv6_vm4 7000))) (let ((.def_190 (* srv6_vm3 800))) (let ((.def_191 (* srv6_vm2 710))) (let ((.def_192 (* srv6_vm1 900))) (let ((.def_193 (* srv6_vm0 100))) (let ((.def_194 (+ .def_193 .def_192 .def_191 .def_190 .def_189 .def_188 .def_187 .def_186 .def_185 .def_184 .def_183))) (let ((.def_195 (<= .def_194 4000))) (let ((.def_196 (* srv6_vm10 12))) (let ((.def_197 (* srv6_vm9 16))) (let ((.def_198 (* srv6_vm8 16))) (let ((.def_199 (* srv6_vm7 4))) (let ((.def_200 (* srv6_vm6 2))) (let ((.def_201 (* srv6_vm5 8))) (let ((.def_202 (* srv6_vm4 4))) (let ((.def_203 (* srv6_vm3 2))) (let ((.def_204 (* srv6_vm2 4))) (let ((.def_205 (* srv6_vm1 16))) (let ((.def_206 (* srv6_vm0 1))) (let ((.def_207 (+ .def_206 .def_205 .def_204 .def_203 .def_202 .def_201 .def_200 .def_199 .def_198 .def_197 .def_196))) (let ((.def_208 (<= .def_207 16))) (let ((.def_209 (* srv5_vm10 1300))) (let ((.def_210 (* srv5_vm9 3700))) (let ((.def_211 (* srv5_vm8 450))) (let ((.def_212 (* srv5_vm7 2500))) (let ((.def_213 (* srv5_vm6 800))) (let ((.def_214 (* srv5_vm5 4000))) (let ((.def_215 (* srv5_vm4 7000))) (let ((.def_216 (* srv5_vm3 800))) (let ((.def_217 (* srv5_vm2 710))) (let ((.def_218 (* srv5_vm1 900))) (let ((.def_219 (* srv5_vm0 100))) (let ((.def_220 (+ .def_219 .def_218 .def_217 .def_216 .def_215 .def_214 .def_213 .def_212 .def_211 .def_210 .def_209))) (let ((.def_221 (<= .def_220 6000))) (let ((.def_222 (* srv5_vm10 12))) (let ((.def_223 (* srv5_vm9 16))) (let ((.def_224 (* srv5_vm8 16))) (let ((.def_225 (* srv5_vm7 4))) (let ((.def_226 (* srv5_vm6 2))) (let ((.def_227 (* srv5_vm5 8))) (let ((.def_228 (* srv5_vm4 4))) (let ((.def_229 (* srv5_vm3 2))) (let ((.def_230 (* srv5_vm2 4))) (let ((.def_231 (* srv5_vm1 16))) (let ((.def_232 (* srv5_vm0 1))) (let ((.def_233 (+ .def_232 .def_231 .def_230 .def_229 .def_228 .def_227 .def_226 .def_225 .def_224 .def_223 .def_222))) (let ((.def_234 (<= .def_233 16))) (let ((.def_235 (* srv4_vm10 1300))) (let ((.def_236 (* srv4_vm9 3700))) (let ((.def_237 (* srv4_vm8 450))) (let ((.def_238 (* srv4_vm7 2500))) (let ((.def_239 (* srv4_vm6 800))) (let ((.def_240 (* srv4_vm5 4000))) (let ((.def_241 (* srv4_vm4 7000))) (let ((.def_242 (* srv4_vm3 800))) (let ((.def_243 (* srv4_vm2 710))) (let ((.def_244 (* srv4_vm1 900))) (let ((.def_245 (* srv4_vm0 100))) (let ((.def_246 (+ .def_245 .def_244 .def_243 .def_242 .def_241 .def_240 .def_239 .def_238 .def_237 .def_236 .def_235))) (let ((.def_247 (<= .def_246 3000))) (let ((.def_248 (* srv4_vm10 12))) (let ((.def_249 (* srv4_vm9 16))) (let ((.def_250 (* srv4_vm8 16))) (let ((.def_251 (* srv4_vm7 4))) (let ((.def_252 (* srv4_vm6 2))) (let ((.def_253 (* srv4_vm5 8))) (let ((.def_254 (* srv4_vm4 4))) (let ((.def_255 (* srv4_vm3 2))) (let ((.def_256 (* srv4_vm2 4))) (let ((.def_257 (* srv4_vm1 16))) (let ((.def_258 (* srv4_vm0 1))) (let ((.def_259 (+ .def_258 .def_257 .def_256 .def_255 .def_254 .def_253 .def_252 .def_251 .def_250 .def_249 .def_248))) (let ((.def_260 (<= .def_259 8))) (let ((.def_261 (* srv3_vm10 1300))) (let ((.def_262 (* srv3_vm9 3700))) (let ((.def_263 (* srv3_vm8 450))) (let ((.def_264 (* srv3_vm7 2500))) (let ((.def_265 (* srv3_vm6 800))) (let ((.def_266 (* srv3_vm5 4000))) (let ((.def_267 (* srv3_vm4 7000))) (let ((.def_268 (* srv3_vm3 800))) (let ((.def_269 (* srv3_vm2 710))) (let ((.def_270 (* srv3_vm1 900))) (let ((.def_271 (* srv3_vm0 100))) (let ((.def_272 (+ .def_271 .def_270 .def_269 .def_268 .def_267 .def_266 .def_265 .def_264 .def_263 .def_262 .def_261))) (let ((.def_273 (<= .def_272 8000))) (let ((.def_274 (* srv3_vm10 12))) (let ((.def_275 (* srv3_vm9 16))) (let ((.def_276 (* srv3_vm8 16))) (let ((.def_277 (* srv3_vm7 4))) (let ((.def_278 (* srv3_vm6 2))) (let ((.def_279 (* srv3_vm5 8))) (let ((.def_280 (* srv3_vm4 4))) (let ((.def_281 (* srv3_vm3 2))) (let ((.def_282 (* srv3_vm2 4))) (let ((.def_283 (* srv3_vm1 16))) (let ((.def_284 (* srv3_vm0 1))) (let ((.def_285 (+ .def_284 .def_283 .def_282 .def_281 .def_280 .def_279 .def_278 .def_277 .def_276 .def_275 .def_274))) (let ((.def_286 (<= .def_285 16))) (let ((.def_287 (* srv2_vm10 1300))) (let ((.def_288 (* srv2_vm9 3700))) (let ((.def_289 (* srv2_vm8 450))) (let ((.def_290 (* srv2_vm7 2500))) (let ((.def_291 (* srv2_vm6 800))) (let ((.def_292 (* srv2_vm5 4000))) (let ((.def_293 (* srv2_vm4 7000))) (let ((.def_294 (* srv2_vm3 800))) (let ((.def_295 (* srv2_vm2 710))) (let ((.def_296 (* srv2_vm1 900))) (let ((.def_297 (* srv2_vm0 100))) (let ((.def_298 (+ .def_297 .def_296 .def_295 .def_294 .def_293 .def_292 .def_291 .def_290 .def_289 .def_288 .def_287))) (let ((.def_299 (<= .def_298 1000))) (let ((.def_300 (* srv2_vm10 12))) (let ((.def_301 (* srv2_vm9 16))) (let ((.def_302 (* srv2_vm8 16))) (let ((.def_303 (* srv2_vm7 4))) (let ((.def_304 (* srv2_vm6 2))) (let ((.def_305 (* srv2_vm5 8))) (let ((.def_306 (* srv2_vm4 4))) (let ((.def_307 (* srv2_vm3 2))) (let ((.def_308 (* srv2_vm2 4))) (let ((.def_309 (* srv2_vm1 16))) (let ((.def_310 (* srv2_vm0 1))) (let ((.def_311 (+ .def_310 .def_309 .def_308 .def_307 .def_306 .def_305 .def_304 .def_303 .def_302 .def_301 .def_300))) (let ((.def_312 (<= .def_311 4))) (let ((.def_313 (* srv1_vm10 1300))) (let ((.def_314 (* srv1_vm9 3700))) (let ((.def_315 (* srv1_vm8 450))) (let ((.def_316 (* srv1_vm7 2500))) (let ((.def_317 (* srv1_vm6 800))) (let ((.def_318 (* srv1_vm5 4000))) (let ((.def_319 (* srv1_vm4 7000))) (let ((.def_320 (* srv1_vm3 800))) (let ((.def_321 (* srv1_vm2 710))) (let ((.def_322 (* srv1_vm1 900))) (let ((.def_323 (* srv1_vm0 100))) (let ((.def_324 (+ .def_323 .def_322 .def_321 .def_320 .def_319 .def_318 .def_317 .def_316 .def_315 .def_314 .def_313))) (let ((.def_325 (<= .def_324 800))) (let ((.def_326 (* srv1_vm10 12))) (let ((.def_327 (* srv1_vm9 16))) (let ((.def_328 (* srv1_vm8 16))) (let ((.def_329 (* srv1_vm7 4))) (let ((.def_330 (* srv1_vm6 2))) (let ((.def_331 (* srv1_vm5 8))) (let ((.def_332 (* srv1_vm4 4))) (let ((.def_333 (* srv1_vm3 2))) (let ((.def_334 (* srv1_vm2 4))) (let ((.def_335 (* srv1_vm1 16))) (let ((.def_336 (* srv1_vm0 1))) (let ((.def_337 (+ .def_336 .def_335 .def_334 .def_333 .def_332 .def_331 .def_330 .def_329 .def_328 .def_327 .def_326))) (let ((.def_338 (<= .def_337 4))) (let ((.def_339 (* srv0_vm10 1300))) (let ((.def_340 (* srv0_vm9 3700))) (let ((.def_341 (* srv0_vm8 450))) (let ((.def_342 (* srv0_vm7 2500))) (let ((.def_343 (* srv0_vm6 800))) (let ((.def_344 (* srv0_vm5 4000))) (let ((.def_345 (* srv0_vm4 7000))) (let ((.def_346 (* srv0_vm3 800))) (let ((.def_347 (* srv0_vm2 710))) (let ((.def_348 (* srv0_vm1 900))) (let ((.def_349 (* srv0_vm0 100))) (let ((.def_350 (+ .def_349 .def_348 .def_347 .def_346 .def_345 .def_344 .def_343 .def_342 .def_341 .def_340 .def_339))) (let ((.def_351 (<= .def_350 100))) (let ((.def_352 (* srv0_vm10 12))) (let ((.def_353 (* srv0_vm9 16))) (let ((.def_354 (* srv0_vm8 16))) (let ((.def_355 (* srv0_vm7 4))) (let ((.def_356 (* srv0_vm6 2))) (let ((.def_357 (* srv0_vm5 8))) (let ((.def_358 (* srv0_vm4 4))) (let ((.def_359 (* srv0_vm3 2))) (let ((.def_360 (* srv0_vm2 4))) (let ((.def_361 (* srv0_vm1 16))) (let ((.def_362 (* srv0_vm0 1))) (let ((.def_363 (+ .def_362 .def_361 .def_360 .def_359 .def_358 .def_357 .def_356 .def_355 .def_354 .def_353 .def_352))) (let ((.def_364 (<= .def_363 2))) (let ((.def_365 (= .def_3 1))) (let ((.def_366 (= .def_10 1))) (let ((.def_367 (= .def_17 1))) (let ((.def_368 (= .def_24 1))) (let ((.def_369 (= .def_31 1))) (let ((.def_370 (= .def_38 1))) (let ((.def_371 (= .def_45 1))) (let ((.def_372 (= .def_52 1))) (let ((.def_373 (= .def_59 1))) (let ((.def_374 (= .def_66 1))) (let ((.def_375 (= .def_73 1))) (let ((.def_376 (<= use_server10 1))) (let ((.def_377 (<= 9 use_server10))) (let ((.def_378 (and .def_377 .def_376))) (let ((.def_379 (<= use_server9 1))) (let ((.def_380 (<= 9 use_server9))) (let ((.def_381 (and .def_380 .def_379))) (let ((.def_382 (<= use_server8 1))) (let ((.def_383 (<= 9 use_server8))) (let ((.def_384 (and .def_383 .def_382))) (let ((.def_385 (<= use_server7 1))) (let ((.def_386 (<= 9 use_server7))) (let ((.def_387 (and .def_386 .def_385))) (let ((.def_388 (<= use_server6 1))) (let ((.def_389 (<= 9 use_server6))) (let ((.def_390 (and .def_389 .def_388))) (let ((.def_391 (<= use_server5 1))) (let ((.def_392 (<= 9 use_server5))) (let ((.def_393 (and .def_392 .def_391))) (let ((.def_394 (<= use_server4 1))) (let ((.def_395 (<= 9 use_server4))) (let ((.def_396 (and .def_395 .def_394))) (let ((.def_397 (<= use_server3 1))) (let ((.def_398 (<= 9 use_server3))) (let ((.def_399 (and .def_398 .def_397))) (let ((.def_400 (<= use_server2 1))) (let ((.def_401 (<= 9 use_server2))) (let ((.def_402 (and .def_401 .def_400))) (let ((.def_403 (<= use_server1 1))) (let ((.def_404 (<= 9 use_server1))) (let ((.def_405 (and .def_404 .def_403))) (let ((.def_406 (<= use_server0 1))) (let ((.def_407 (<= 9 use_server0))) (let ((.def_408 (and .def_407 .def_406))) (let ((.def_409 (<= srv10_vm10 1))) (let ((.def_410 (<= 0 srv10_vm10))) (let ((.def_411 (and .def_410 .def_409))) (let ((.def_412 (<= srv10_vm9 1))) (let ((.def_413 (<= 0 srv10_vm9))) (let ((.def_414 (and .def_413 .def_412))) (let ((.def_415 (<= srv10_vm8 1))) (let ((.def_416 (<= 0 srv10_vm8))) (let ((.def_417 (and .def_416 .def_415))) (let ((.def_418 (<= srv10_vm7 1))) (let ((.def_419 (<= 0 srv10_vm7))) (let ((.def_420 (and .def_419 .def_418))) (let ((.def_421 (<= srv10_vm6 1))) (let ((.def_422 (<= 0 srv10_vm6))) (let ((.def_423 (and .def_422 .def_421))) (let ((.def_424 (<= srv10_vm5 1))) (let ((.def_425 (<= 0 srv10_vm5))) (let ((.def_426 (and .def_425 .def_424))) (let ((.def_427 (<= srv10_vm4 1))) (let ((.def_428 (<= 0 srv10_vm4))) (let ((.def_429 (and .def_428 .def_427))) (let ((.def_430 (<= srv10_vm3 1))) (let ((.def_431 (<= 0 srv10_vm3))) (let ((.def_432 (and .def_431 .def_430))) (let ((.def_433 (<= srv10_vm2 1))) (let ((.def_434 (<= 0 srv10_vm2))) (let ((.def_435 (and .def_434 .def_433))) (let ((.def_436 (<= srv10_vm1 1))) (let ((.def_437 (<= 0 srv10_vm1))) (let ((.def_438 (and .def_437 .def_436))) (let ((.def_439 (<= srv10_vm0 1))) (let ((.def_440 (<= 0 srv10_vm0))) (let ((.def_441 (and .def_440 .def_439))) (let ((.def_442 (<= srv9_vm10 1))) (let ((.def_443 (<= 0 srv9_vm10))) (let ((.def_444 (and .def_443 .def_442))) (let ((.def_445 (<= srv9_vm9 1))) (let ((.def_446 (<= 0 srv9_vm9))) (let ((.def_447 (and .def_446 .def_445))) (let ((.def_448 (<= srv9_vm8 1))) (let ((.def_449 (<= 0 srv9_vm8))) (let ((.def_450 (and .def_449 .def_448))) (let ((.def_451 (<= srv9_vm7 1))) (let ((.def_452 (<= 0 srv9_vm7))) (let ((.def_453 (and .def_452 .def_451))) (let ((.def_454 (<= srv9_vm6 1))) (let ((.def_455 (<= 0 srv9_vm6))) (let ((.def_456 (and .def_455 .def_454))) (let ((.def_457 (<= srv9_vm5 1))) (let ((.def_458 (<= 0 srv9_vm5))) (let ((.def_459 (and .def_458 .def_457))) (let ((.def_460 (<= srv9_vm4 1))) (let ((.def_461 (<= 0 srv9_vm4))) (let ((.def_462 (and .def_461 .def_460))) (let ((.def_463 (<= srv9_vm3 1))) (let ((.def_464 (<= 0 srv9_vm3))) (let ((.def_465 (and .def_464 .def_463))) (let ((.def_466 (<= srv9_vm2 1))) (let ((.def_467 (<= 0 srv9_vm2))) (let ((.def_468 (and .def_467 .def_466))) (let ((.def_469 (<= srv9_vm1 1))) (let ((.def_470 (<= 0 srv9_vm1))) (let ((.def_471 (and .def_470 .def_469))) (let ((.def_472 (<= srv9_vm0 1))) (let ((.def_473 (<= 0 srv9_vm0))) (let ((.def_474 (and .def_473 .def_472))) (let ((.def_475 (<= srv8_vm10 1))) (let ((.def_476 (<= 0 srv8_vm10))) (let ((.def_477 (and .def_476 .def_475))) (let ((.def_478 (<= srv8_vm9 1))) (let ((.def_479 (<= 0 srv8_vm9))) (let ((.def_480 (and .def_479 .def_478))) (let ((.def_481 (<= srv8_vm8 1))) (let ((.def_482 (<= 0 srv8_vm8))) (let ((.def_483 (and .def_482 .def_481))) (let ((.def_484 (<= srv8_vm7 1))) (let ((.def_485 (<= 0 srv8_vm7))) (let ((.def_486 (and .def_485 .def_484))) (let ((.def_487 (<= srv8_vm6 1))) (let ((.def_488 (<= 0 srv8_vm6))) (let ((.def_489 (and .def_488 .def_487))) (let ((.def_490 (<= srv8_vm5 1))) (let ((.def_491 (<= 0 srv8_vm5))) (let ((.def_492 (and .def_491 .def_490))) (let ((.def_493 (<= srv8_vm4 1))) (let ((.def_494 (<= 0 srv8_vm4))) (let ((.def_495 (and .def_494 .def_493))) (let ((.def_496 (<= srv8_vm3 1))) (let ((.def_497 (<= 0 srv8_vm3))) (let ((.def_498 (and .def_497 .def_496))) (let ((.def_499 (<= srv8_vm2 1))) (let ((.def_500 (<= 0 srv8_vm2))) (let ((.def_501 (and .def_500 .def_499))) (let ((.def_502 (<= srv8_vm1 1))) (let ((.def_503 (<= 0 srv8_vm1))) (let ((.def_504 (and .def_503 .def_502))) (let ((.def_505 (<= srv8_vm0 1))) (let ((.def_506 (<= 0 srv8_vm0))) (let ((.def_507 (and .def_506 .def_505))) (let ((.def_508 (<= srv7_vm10 1))) (let ((.def_509 (<= 0 srv7_vm10))) (let ((.def_510 (and .def_509 .def_508))) (let ((.def_511 (<= srv7_vm9 1))) (let ((.def_512 (<= 0 srv7_vm9))) (let ((.def_513 (and .def_512 .def_511))) (let ((.def_514 (<= srv7_vm8 1))) (let ((.def_515 (<= 0 srv7_vm8))) (let ((.def_516 (and .def_515 .def_514))) (let ((.def_517 (<= srv7_vm7 1))) (let ((.def_518 (<= 0 srv7_vm7))) (let ((.def_519 (and .def_518 .def_517))) (let ((.def_520 (<= srv7_vm6 1))) (let ((.def_521 (<= 0 srv7_vm6))) (let ((.def_522 (and .def_521 .def_520))) (let ((.def_523 (<= srv7_vm5 1))) (let ((.def_524 (<= 0 srv7_vm5))) (let ((.def_525 (and .def_524 .def_523))) (let ((.def_526 (<= srv7_vm4 1))) (let ((.def_527 (<= 0 srv7_vm4))) (let ((.def_528 (and .def_527 .def_526))) (let ((.def_529 (<= srv7_vm3 1))) (let ((.def_530 (<= 0 srv7_vm3))) (let ((.def_531 (and .def_530 .def_529))) (let ((.def_532 (<= srv7_vm2 1))) (let ((.def_533 (<= 0 srv7_vm2))) (let ((.def_534 (and .def_533 .def_532))) (let ((.def_535 (<= srv7_vm1 1))) (let ((.def_536 (<= 0 srv7_vm1))) (let ((.def_537 (and .def_536 .def_535))) (let ((.def_538 (<= srv7_vm0 1))) (let ((.def_539 (<= 0 srv7_vm0))) (let ((.def_540 (and .def_539 .def_538))) (let ((.def_541 (<= srv6_vm10 1))) (let ((.def_542 (<= 0 srv6_vm10))) (let ((.def_543 (and .def_542 .def_541))) (let ((.def_544 (<= srv6_vm9 1))) (let ((.def_545 (<= 0 srv6_vm9))) (let ((.def_546 (and .def_545 .def_544))) (let ((.def_547 (<= srv6_vm8 1))) (let ((.def_548 (<= 0 srv6_vm8))) (let ((.def_549 (and .def_548 .def_547))) (let ((.def_550 (<= srv6_vm7 1))) (let ((.def_551 (<= 0 srv6_vm7))) (let ((.def_552 (and .def_551 .def_550))) (let ((.def_553 (<= srv6_vm6 1))) (let ((.def_554 (<= 0 srv6_vm6))) (let ((.def_555 (and .def_554 .def_553))) (let ((.def_556 (<= srv6_vm5 1))) (let ((.def_557 (<= 0 srv6_vm5))) (let ((.def_558 (and .def_557 .def_556))) (let ((.def_559 (<= srv6_vm4 1))) (let ((.def_560 (<= 0 srv6_vm4))) (let ((.def_561 (and .def_560 .def_559))) (let ((.def_562 (<= srv6_vm3 1))) (let ((.def_563 (<= 0 srv6_vm3))) (let ((.def_564 (and .def_563 .def_562))) (let ((.def_565 (<= srv6_vm2 1))) (let ((.def_566 (<= 0 srv6_vm2))) (let ((.def_567 (and .def_566 .def_565))) (let ((.def_568 (<= srv6_vm1 1))) (let ((.def_569 (<= 0 srv6_vm1))) (let ((.def_570 (and .def_569 .def_568))) (let ((.def_571 (<= srv6_vm0 1))) (let ((.def_572 (<= 0 srv6_vm0))) (let ((.def_573 (and .def_572 .def_571))) (let ((.def_574 (<= srv5_vm10 1))) (let ((.def_575 (<= 0 srv5_vm10))) (let ((.def_576 (and .def_575 .def_574))) (let ((.def_577 (<= srv5_vm9 1))) (let ((.def_578 (<= 0 srv5_vm9))) (let ((.def_579 (and .def_578 .def_577))) (let ((.def_580 (<= srv5_vm8 1))) (let ((.def_581 (<= 0 srv5_vm8))) (let ((.def_582 (and .def_581 .def_580))) (let ((.def_583 (<= srv5_vm7 1))) (let ((.def_584 (<= 0 srv5_vm7))) (let ((.def_585 (and .def_584 .def_583))) (let ((.def_586 (<= srv5_vm6 1))) (let ((.def_587 (<= 0 srv5_vm6))) (let ((.def_588 (and .def_587 .def_586))) (let ((.def_589 (<= srv5_vm5 1))) (let ((.def_590 (<= 0 srv5_vm5))) (let ((.def_591 (and .def_590 .def_589))) (let ((.def_592 (<= srv5_vm4 1))) (let ((.def_593 (<= 0 srv5_vm4))) (let ((.def_594 (and .def_593 .def_592))) (let ((.def_595 (<= srv5_vm3 1))) (let ((.def_596 (<= 0 srv5_vm3))) (let ((.def_597 (and .def_596 .def_595))) (let ((.def_598 (<= srv5_vm2 1))) (let ((.def_599 (<= 0 srv5_vm2))) (let ((.def_600 (and .def_599 .def_598))) (let ((.def_601 (<= srv5_vm1 1))) (let ((.def_602 (<= 0 srv5_vm1))) (let ((.def_603 (and .def_602 .def_601))) (let ((.def_604 (<= srv5_vm0 1))) (let ((.def_605 (<= 0 srv5_vm0))) (let ((.def_606 (and .def_605 .def_604))) (let ((.def_607 (<= srv4_vm10 1))) (let ((.def_608 (<= 0 srv4_vm10))) (let ((.def_609 (and .def_608 .def_607))) (let ((.def_610 (<= srv4_vm9 1))) (let ((.def_611 (<= 0 srv4_vm9))) (let ((.def_612 (and .def_611 .def_610))) (let ((.def_613 (<= srv4_vm8 1))) (let ((.def_614 (<= 0 srv4_vm8))) (let ((.def_615 (and .def_614 .def_613))) (let ((.def_616 (<= srv4_vm7 1))) (let ((.def_617 (<= 0 srv4_vm7))) (let ((.def_618 (and .def_617 .def_616))) (let ((.def_619 (<= srv4_vm6 1))) (let ((.def_620 (<= 0 srv4_vm6))) (let ((.def_621 (and .def_620 .def_619))) (let ((.def_622 (<= srv4_vm5 1))) (let ((.def_623 (<= 0 srv4_vm5))) (let ((.def_624 (and .def_623 .def_622))) (let ((.def_625 (<= srv4_vm4 1))) (let ((.def_626 (<= 0 srv4_vm4))) (let ((.def_627 (and .def_626 .def_625))) (let ((.def_628 (<= srv4_vm3 1))) (let ((.def_629 (<= 0 srv4_vm3))) (let ((.def_630 (and .def_629 .def_628))) (let ((.def_631 (<= srv4_vm2 1))) (let ((.def_632 (<= 0 srv4_vm2))) (let ((.def_633 (and .def_632 .def_631))) (let ((.def_634 (<= srv4_vm1 1))) (let ((.def_635 (<= 0 srv4_vm1))) (let ((.def_636 (and .def_635 .def_634))) (let ((.def_637 (<= srv4_vm0 1))) (let ((.def_638 (<= 0 srv4_vm0))) (let ((.def_639 (and .def_638 .def_637))) (let ((.def_640 (<= srv3_vm10 1))) (let ((.def_641 (<= 0 srv3_vm10))) (let ((.def_642 (and .def_641 .def_640))) (let ((.def_643 (<= srv3_vm9 1))) (let ((.def_644 (<= 0 srv3_vm9))) (let ((.def_645 (and .def_644 .def_643))) (let ((.def_646 (<= srv3_vm8 1))) (let ((.def_647 (<= 0 srv3_vm8))) (let ((.def_648 (and .def_647 .def_646))) (let ((.def_649 (<= srv3_vm7 1))) (let ((.def_650 (<= 0 srv3_vm7))) (let ((.def_651 (and .def_650 .def_649))) (let ((.def_652 (<= srv3_vm6 1))) (let ((.def_653 (<= 0 srv3_vm6))) (let ((.def_654 (and .def_653 .def_652))) (let ((.def_655 (<= srv3_vm5 1))) (let ((.def_656 (<= 0 srv3_vm5))) (let ((.def_657 (and .def_656 .def_655))) (let ((.def_658 (<= srv3_vm4 1))) (let ((.def_659 (<= 0 srv3_vm4))) (let ((.def_660 (and .def_659 .def_658))) (let ((.def_661 (<= srv3_vm3 1))) (let ((.def_662 (<= 0 srv3_vm3))) (let ((.def_663 (and .def_662 .def_661))) (let ((.def_664 (<= srv3_vm2 1))) (let ((.def_665 (<= 0 srv3_vm2))) (let ((.def_666 (and .def_665 .def_664))) (let ((.def_667 (<= srv3_vm1 1))) (let ((.def_668 (<= 0 srv3_vm1))) (let ((.def_669 (and .def_668 .def_667))) (let ((.def_670 (<= srv3_vm0 1))) (let ((.def_671 (<= 0 srv3_vm0))) (let ((.def_672 (and .def_671 .def_670))) (let ((.def_673 (<= srv2_vm10 1))) (let ((.def_674 (<= 0 srv2_vm10))) (let ((.def_675 (and .def_674 .def_673))) (let ((.def_676 (<= srv2_vm9 1))) (let ((.def_677 (<= 0 srv2_vm9))) (let ((.def_678 (and .def_677 .def_676))) (let ((.def_679 (<= srv2_vm8 1))) (let ((.def_680 (<= 0 srv2_vm8))) (let ((.def_681 (and .def_680 .def_679))) (let ((.def_682 (<= srv2_vm7 1))) (let ((.def_683 (<= 0 srv2_vm7))) (let ((.def_684 (and .def_683 .def_682))) (let ((.def_685 (<= srv2_vm6 1))) (let ((.def_686 (<= 0 srv2_vm6))) (let ((.def_687 (and .def_686 .def_685))) (let ((.def_688 (<= srv2_vm5 1))) (let ((.def_689 (<= 0 srv2_vm5))) (let ((.def_690 (and .def_689 .def_688))) (let ((.def_691 (<= srv2_vm4 1))) (let ((.def_692 (<= 0 srv2_vm4))) (let ((.def_693 (and .def_692 .def_691))) (let ((.def_694 (<= srv2_vm3 1))) (let ((.def_695 (<= 0 srv2_vm3))) (let ((.def_696 (and .def_695 .def_694))) (let ((.def_697 (<= srv2_vm2 1))) (let ((.def_698 (<= 0 srv2_vm2))) (let ((.def_699 (and .def_698 .def_697))) (let ((.def_700 (<= srv2_vm1 1))) (let ((.def_701 (<= 0 srv2_vm1))) (let ((.def_702 (and .def_701 .def_700))) (let ((.def_703 (<= srv2_vm0 1))) (let ((.def_704 (<= 0 srv2_vm0))) (let ((.def_705 (and .def_704 .def_703))) (let ((.def_706 (<= srv1_vm10 1))) (let ((.def_707 (<= 0 srv1_vm10))) (let ((.def_708 (and .def_707 .def_706))) (let ((.def_709 (<= srv1_vm9 1))) (let ((.def_710 (<= 0 srv1_vm9))) (let ((.def_711 (and .def_710 .def_709))) (let ((.def_712 (<= srv1_vm8 1))) (let ((.def_713 (<= 0 srv1_vm8))) (let ((.def_714 (and .def_713 .def_712))) (let ((.def_715 (<= srv1_vm7 1))) (let ((.def_716 (<= 0 srv1_vm7))) (let ((.def_717 (and .def_716 .def_715))) (let ((.def_718 (<= srv1_vm6 1))) (let ((.def_719 (<= 0 srv1_vm6))) (let ((.def_720 (and .def_719 .def_718))) (let ((.def_721 (<= srv1_vm5 1))) (let ((.def_722 (<= 0 srv1_vm5))) (let ((.def_723 (and .def_722 .def_721))) (let ((.def_724 (<= srv1_vm4 1))) (let ((.def_725 (<= 0 srv1_vm4))) (let ((.def_726 (and .def_725 .def_724))) (let ((.def_727 (<= srv1_vm3 1))) (let ((.def_728 (<= 0 srv1_vm3))) (let ((.def_729 (and .def_728 .def_727))) (let ((.def_730 (<= srv1_vm2 1))) (let ((.def_731 (<= 0 srv1_vm2))) (let ((.def_732 (and .def_731 .def_730))) (let ((.def_733 (<= srv1_vm1 1))) (let ((.def_734 (<= 0 srv1_vm1))) (let ((.def_735 (and .def_734 .def_733))) (let ((.def_736 (<= srv1_vm0 1))) (let ((.def_737 (<= 0 srv1_vm0))) (let ((.def_738 (and .def_737 .def_736))) (let ((.def_739 (<= srv0_vm10 1))) (let ((.def_740 (<= 0 srv0_vm10))) (let ((.def_741 (and .def_740 .def_739))) (let ((.def_742 (<= srv0_vm9 1))) (let ((.def_743 (<= 0 srv0_vm9))) (let ((.def_744 (and .def_743 .def_742))) (let ((.def_745 (<= srv0_vm8 1))) (let ((.def_746 (<= 0 srv0_vm8))) (let ((.def_747 (and .def_746 .def_745))) (let ((.def_748 (<= srv0_vm7 1))) (let ((.def_749 (<= 0 srv0_vm7))) (let ((.def_750 (and .def_749 .def_748))) (let ((.def_751 (<= srv0_vm6 1))) (let ((.def_752 (<= 0 srv0_vm6))) (let ((.def_753 (and .def_752 .def_751))) (let ((.def_754 (<= srv0_vm5 1))) (let ((.def_755 (<= 0 srv0_vm5))) (let ((.def_756 (and .def_755 .def_754))) (let ((.def_757 (<= srv0_vm4 1))) (let ((.def_758 (<= 0 srv0_vm4))) (let ((.def_759 (and .def_758 .def_757))) (let ((.def_760 (<= srv0_vm3 1))) (let ((.def_761 (<= 0 srv0_vm3))) (let ((.def_762 (and .def_761 .def_760))) (let ((.def_763 (<= srv0_vm2 1))) (let ((.def_764 (<= 0 srv0_vm2))) (let ((.def_765 (and .def_764 .def_763))) (let ((.def_766 (<= srv0_vm1 1))) (let ((.def_767 (<= 0 srv0_vm1))) (let ((.def_768 (and .def_767 .def_766))) (let ((.def_769 (<= srv0_vm0 1))) (let ((.def_770 (<= 0 srv0_vm0))) (let ((.def_771 (and .def_770 .def_769))) (let ((.def_772 (and .def_771 .def_768 .def_765 .def_762 .def_759 .def_756 .def_753 .def_750 .def_747 .def_744 .def_741 .def_738 .def_735 .def_732 .def_729 .def_726 .def_723 .def_720 .def_717 .def_714 .def_711 .def_708 .def_705 .def_702 .def_699 .def_696 .def_693 .def_690 .def_687 .def_684 .def_681 .def_678 .def_675 .def_672 .def_669 .def_666 .def_663 .def_660 .def_657 .def_654 .def_651 .def_648 .def_645 .def_642 .def_639 .def_636 .def_633 .def_630 .def_627 .def_624 .def_621 .def_618 .def_615 .def_612 .def_609 .def_606 .def_603 .def_600 .def_597 .def_594 .def_591 .def_588 .def_585 .def_582 .def_579 .def_576 .def_573 .def_570 .def_567 .def_564 .def_561 .def_558 .def_555 .def_552 .def_549 .def_546 .def_543 .def_540 .def_537 .def_534 .def_531 .def_528 .def_525 .def_522 .def_519 .def_516 .def_513 .def_510 .def_507 .def_504 .def_501 .def_498 .def_495 .def_492 .def_489 .def_486 .def_483 .def_480 .def_477 .def_474 .def_471 .def_468 .def_465 .def_462 .def_459 .def_456 .def_453 .def_450 .def_447 .def_444 .def_441 .def_438 .def_435 .def_432 .def_429 .def_426 .def_423 .def_420 .def_417 .def_414 .def_411 .def_408 .def_405 .def_402 .def_399 .def_396 .def_393 .def_390 .def_387 .def_384 .def_381 .def_378 .def_375 .def_374 .def_373 .def_372 .def_371 .def_370 .def_369 .def_368 .def_367 .def_366 .def_365 .def_364 .def_351 .def_338 .def_325 .def_312 .def_299 .def_286 .def_273 .def_260 .def_247 .def_234 .def_221 .def_208 .def_195 .def_182 .def_169 .def_156 .def_143 .def_130 .def_117 .def_104 .def_91 .def_78 .def_75 .def_71 .def_68 .def_64 .def_61 .def_57 .def_54 .def_50 .def_47 .def_43 .def_40 .def_36 .def_33 .def_29 .def_26 .def_22 .def_19 .def_15 .def_12 .def_8 .def_5 .def_1))) .def_772))))))))))))))))))))))))))))))))))))))))))))))))))))))))))))))))))))))))))))))))))))))))))))))))))))))))))))))))))))))))))))))))))))))))))))))))))))))))))))))))))))))))))))))))))))))))))))))))))))))))))))))))))))))))))))))))))))))))))))))))))))))))))))))))))))))))))))))))))))))))))))))))))))))))))))))))))))))))))))))))))))))))))))))))))))))))))))))))))))))))))))))))))))))))))))))))))))))))))))))))))))))))))))))))))))))))))))))))))))))))))))))))))))))))))))))))))))))))))))))))))))))))))))))))))))))))))))))))))))))))))))))))))))))))))))))))))))))))))))))))))))))))))))))))))))))))))))))))))))))))))))))))))))))))))))))))))))))))))))))))))))))))))))))))))))))))))))))))))))))))))))))))))))))))))))))))))))))))))))))))))))))))))))))))))))))))))))))))))))))))))))))))))))))


(minimize n_servers)

(check-sat)
(get-model)
(exit)
